
;this file is automatically generated: Tue Feb 23 13:38:01 CST 2021

;declarations generated

(declare-fun oclExcludes ( Int Int) Bool)
(declare-fun Cardinality ( Int) Int)
(declare-fun obj_94e80035_e3e0_4404_9f1b_a533f66d7f4d ( Int) Int)
(declare-fun class17_Class17BoolAttr0 ( Int) Bool)
(declare-fun class17_Class17BoolAttr1 ( Int) Bool)
(declare-fun type_ebae6141_0901_43b8_b05c_2e01c6228f25_Class6 ( Int) Bool)
(declare-fun type_ebae6141_0901_43b8_b05c_2e01c6228f25_Class7 ( Int) Bool)
(declare-fun type_ebae6141_0901_43b8_b05c_2e01c6228f25_Class8 ( Int) Bool)
(declare-fun type_ebae6141_0901_43b8_b05c_2e01c6228f25_Class9 ( Int) Bool)
(declare-fun type_ebae6141_0901_43b8_b05c_2e01c6228f25_Class2 ( Int) Bool)
(declare-fun type_ebae6141_0901_43b8_b05c_2e01c6228f25_Class3 ( Int) Bool)
(declare-fun type_ebae6141_0901_43b8_b05c_2e01c6228f25_Class4 ( Int) Bool)
(declare-fun type_ebae6141_0901_43b8_b05c_2e01c6228f25_Class5 ( Int) Bool)
(declare-fun type_ebae6141_0901_43b8_b05c_2e01c6228f25_Class0 ( Int) Bool)
(declare-fun type_ebae6141_0901_43b8_b05c_2e01c6228f25_Class1 ( Int) Bool)
(declare-fun oclSelect ( Int Bool) Int)
(declare-fun type_ebae6141_0901_43b8_b05c_2e01c6228f25_Class10 ( Int) Bool)
(declare-fun type_ebae6141_0901_43b8_b05c_2e01c6228f25_Class11 ( Int) Bool)
(declare-fun type_ebae6141_0901_43b8_b05c_2e01c6228f25_Class12 ( Int) Bool)
(declare-fun type_ebae6141_0901_43b8_b05c_2e01c6228f25_Class17 ( Int) Bool)
(declare-fun type_ebae6141_0901_43b8_b05c_2e01c6228f25_Class18 ( Int) Bool)
(declare-fun type_ebae6141_0901_43b8_b05c_2e01c6228f25_Class19 ( Int) Bool)
(declare-fun type_ebae6141_0901_43b8_b05c_2e01c6228f25_Class13 ( Int) Bool)
(declare-fun type_ebae6141_0901_43b8_b05c_2e01c6228f25_Class14 ( Int) Bool)
(declare-fun type_ebae6141_0901_43b8_b05c_2e01c6228f25_Class15 ( Int) Bool)
(declare-fun type_ebae6141_0901_43b8_b05c_2e01c6228f25_Class16 ( Int) Bool)
(declare-fun Enum0 ( Int) Int)
(declare-fun Enum1 ( Int) Int)
(declare-fun Enum2 ( Int) Int)
(declare-fun type_ebae6141_0901_43b8_b05c_2e01c6228f25_Class20 ( Int) Bool)
(declare-fun type_ebae6141_0901_43b8_b05c_2e01c6228f25_Class21 ( Int) Bool)
(declare-fun type_ebae6141_0901_43b8_b05c_2e01c6228f25_Class22 ( Int) Bool)
(declare-fun type_ebae6141_0901_43b8_b05c_2e01c6228f25_Class23 ( Int) Bool)
(declare-fun container_ ( Int) Int)
(declare-fun oclIncludes ( Int Int) Bool)
(declare-fun type_ebae6141_0901_43b8_b05c_2e01c6228f25_Class28 ( Int) Bool)
(declare-fun type_ebae6141_0901_43b8_b05c_2e01c6228f25_Class29 ( Int) Bool)
(declare-fun type_ebae6141_0901_43b8_b05c_2e01c6228f25_Class24 ( Int) Bool)
(declare-fun type_ebae6141_0901_43b8_b05c_2e01c6228f25_Class25 ( Int) Bool)
(declare-fun type_ebae6141_0901_43b8_b05c_2e01c6228f25_Class26 ( Int) Bool)
(declare-fun type_ebae6141_0901_43b8_b05c_2e01c6228f25_Class27 ( Int) Bool)
(declare-fun type_ebae6141_0901_43b8_b05c_2e01c6228f25_Class31 ( Int) Bool)
(declare-fun type_ebae6141_0901_43b8_b05c_2e01c6228f25_Class32 ( Int) Bool)
(declare-fun type_ebae6141_0901_43b8_b05c_2e01c6228f25_Class33 ( Int) Bool)
(declare-fun type_ebae6141_0901_43b8_b05c_2e01c6228f25_Class34 ( Int) Bool)
(declare-fun type_ebae6141_0901_43b8_b05c_2e01c6228f25_Class30 ( Int) Bool)
(declare-fun type_ebae6141_0901_43b8_b05c_2e01c6228f25_Class39 ( Int) Bool)
(declare-fun type_ebae6141_0901_43b8_b05c_2e01c6228f25_Class35 ( Int) Bool)
(declare-fun type_ebae6141_0901_43b8_b05c_2e01c6228f25_Class36 ( Int) Bool)
(declare-fun type_ebae6141_0901_43b8_b05c_2e01c6228f25_Class37 ( Int) Bool)
(declare-fun type_ebae6141_0901_43b8_b05c_2e01c6228f25_Class38 ( Int) Bool)
(declare-fun ObjAt ( Int Int) Int)
(declare-fun type_ebae6141_0901_43b8_b05c_2e01c6228f25_Class42 ( Int) Bool)
(declare-fun type_ebae6141_0901_43b8_b05c_2e01c6228f25_Class43 ( Int) Bool)
(declare-fun type_ebae6141_0901_43b8_b05c_2e01c6228f25_Class44 ( Int) Bool)
(declare-fun type_ebae6141_0901_43b8_b05c_2e01c6228f25_Class45 ( Int) Bool)
(declare-fun type_ebae6141_0901_43b8_b05c_2e01c6228f25_Class40 ( Int) Bool)
(declare-fun type_ebae6141_0901_43b8_b05c_2e01c6228f25_Class41 ( Int) Bool)

;formula(s) generated
(assert (! (or (forall ((v Int)) (=> (and (and (and (and ( type_ebae6141_0901_43b8_b05c_2e01c6228f25_Class17 v )  ( type_ebae6141_0901_43b8_b05c_2e01c6228f25_Class24 v ) ) ( type_ebae6141_0901_43b8_b05c_2e01c6228f25_Class26 v ) ) ( type_ebae6141_0901_43b8_b05c_2e01c6228f25_Class32 v ) ) ( type_ebae6141_0901_43b8_b05c_2e01c6228f25_Class2 v ) ) ( class17_Class17BoolAttr1 ( obj_94e80035_e3e0_4404_9f1b_a533f66d7f4d v )  ) )) (forall ((v Int)) (=> (and (and (and (and ( type_ebae6141_0901_43b8_b05c_2e01c6228f25_Class17 v )  ( type_ebae6141_0901_43b8_b05c_2e01c6228f25_Class24 v ) ) ( type_ebae6141_0901_43b8_b05c_2e01c6228f25_Class26 v ) ) ( type_ebae6141_0901_43b8_b05c_2e01c6228f25_Class32 v ) ) ( type_ebae6141_0901_43b8_b05c_2e01c6228f25_Class2 v ) ) ( class17_Class17BoolAttr0 ( obj_94e80035_e3e0_4404_9f1b_a533f66d7f4d v )  ) ))):named l0))
(assert (! (exists ((o Int)) (and (and (and ( type_ebae6141_0901_43b8_b05c_2e01c6228f25_Class0 ( obj_94e80035_e3e0_4404_9f1b_a533f66d7f4d o )  )  ( type_ebae6141_0901_43b8_b05c_2e01c6228f25_Class22 ( obj_94e80035_e3e0_4404_9f1b_a533f66d7f4d o )  ) ) ( type_ebae6141_0901_43b8_b05c_2e01c6228f25_Class35 ( obj_94e80035_e3e0_4404_9f1b_a533f66d7f4d o )  ) ) ( type_ebae6141_0901_43b8_b05c_2e01c6228f25_Class2 ( obj_94e80035_e3e0_4404_9f1b_a533f66d7f4d o )  ) )):named c0))
(assert (! (exists ((o Int)) ( type_ebae6141_0901_43b8_b05c_2e01c6228f25_Class1 ( obj_94e80035_e3e0_4404_9f1b_a533f66d7f4d o )  ) ):named c1))
(assert (! (exists ((o Int)) (and (and (and (and ( type_ebae6141_0901_43b8_b05c_2e01c6228f25_Class10 ( obj_94e80035_e3e0_4404_9f1b_a533f66d7f4d o )  )  ( type_ebae6141_0901_43b8_b05c_2e01c6228f25_Class16 ( obj_94e80035_e3e0_4404_9f1b_a533f66d7f4d o )  ) ) ( type_ebae6141_0901_43b8_b05c_2e01c6228f25_Class15 ( obj_94e80035_e3e0_4404_9f1b_a533f66d7f4d o )  ) ) ( type_ebae6141_0901_43b8_b05c_2e01c6228f25_Class41 ( obj_94e80035_e3e0_4404_9f1b_a533f66d7f4d o )  ) ) ( type_ebae6141_0901_43b8_b05c_2e01c6228f25_Class2 ( obj_94e80035_e3e0_4404_9f1b_a533f66d7f4d o )  ) )):named c2))
(assert (! (exists ((o Int)) ( type_ebae6141_0901_43b8_b05c_2e01c6228f25_Class11 ( obj_94e80035_e3e0_4404_9f1b_a533f66d7f4d o )  ) ):named c3))
(assert (! (exists ((o Int)) (and (and (and (and ( type_ebae6141_0901_43b8_b05c_2e01c6228f25_Class12 ( obj_94e80035_e3e0_4404_9f1b_a533f66d7f4d o )  )  ( type_ebae6141_0901_43b8_b05c_2e01c6228f25_Class22 ( obj_94e80035_e3e0_4404_9f1b_a533f66d7f4d o )  ) ) ( type_ebae6141_0901_43b8_b05c_2e01c6228f25_Class35 ( obj_94e80035_e3e0_4404_9f1b_a533f66d7f4d o )  ) ) ( type_ebae6141_0901_43b8_b05c_2e01c6228f25_Class0 ( obj_94e80035_e3e0_4404_9f1b_a533f66d7f4d o )  ) ) ( type_ebae6141_0901_43b8_b05c_2e01c6228f25_Class2 ( obj_94e80035_e3e0_4404_9f1b_a533f66d7f4d o )  ) )):named c4))
(assert (! (exists ((o Int)) (and (and (and ( type_ebae6141_0901_43b8_b05c_2e01c6228f25_Class13 ( obj_94e80035_e3e0_4404_9f1b_a533f66d7f4d o )  )  ( type_ebae6141_0901_43b8_b05c_2e01c6228f25_Class16 ( obj_94e80035_e3e0_4404_9f1b_a533f66d7f4d o )  ) ) ( type_ebae6141_0901_43b8_b05c_2e01c6228f25_Class15 ( obj_94e80035_e3e0_4404_9f1b_a533f66d7f4d o )  ) ) ( type_ebae6141_0901_43b8_b05c_2e01c6228f25_Class2 ( obj_94e80035_e3e0_4404_9f1b_a533f66d7f4d o )  ) )):named c5))
(assert (! (exists ((o Int)) (and (and (and (and (and (and (and ( type_ebae6141_0901_43b8_b05c_2e01c6228f25_Class14 ( obj_94e80035_e3e0_4404_9f1b_a533f66d7f4d o )  )  ( type_ebae6141_0901_43b8_b05c_2e01c6228f25_Class33 ( obj_94e80035_e3e0_4404_9f1b_a533f66d7f4d o )  ) ) ( type_ebae6141_0901_43b8_b05c_2e01c6228f25_Class13 ( obj_94e80035_e3e0_4404_9f1b_a533f66d7f4d o )  ) ) ( type_ebae6141_0901_43b8_b05c_2e01c6228f25_Class16 ( obj_94e80035_e3e0_4404_9f1b_a533f66d7f4d o )  ) ) ( type_ebae6141_0901_43b8_b05c_2e01c6228f25_Class15 ( obj_94e80035_e3e0_4404_9f1b_a533f66d7f4d o )  ) ) ( type_ebae6141_0901_43b8_b05c_2e01c6228f25_Class4 ( obj_94e80035_e3e0_4404_9f1b_a533f66d7f4d o )  ) ) ( type_ebae6141_0901_43b8_b05c_2e01c6228f25_Class41 ( obj_94e80035_e3e0_4404_9f1b_a533f66d7f4d o )  ) ) ( type_ebae6141_0901_43b8_b05c_2e01c6228f25_Class2 ( obj_94e80035_e3e0_4404_9f1b_a533f66d7f4d o )  ) )):named c6))
(assert (! (exists ((o Int)) (and ( type_ebae6141_0901_43b8_b05c_2e01c6228f25_Class15 ( obj_94e80035_e3e0_4404_9f1b_a533f66d7f4d o )  )  ( type_ebae6141_0901_43b8_b05c_2e01c6228f25_Class2 ( obj_94e80035_e3e0_4404_9f1b_a533f66d7f4d o )  ) )):named c7))
(assert (! (exists ((o Int)) (and (and ( type_ebae6141_0901_43b8_b05c_2e01c6228f25_Class16 ( obj_94e80035_e3e0_4404_9f1b_a533f66d7f4d o )  )  ( type_ebae6141_0901_43b8_b05c_2e01c6228f25_Class15 ( obj_94e80035_e3e0_4404_9f1b_a533f66d7f4d o )  ) ) ( type_ebae6141_0901_43b8_b05c_2e01c6228f25_Class2 ( obj_94e80035_e3e0_4404_9f1b_a533f66d7f4d o )  ) )):named c8))
(assert (! (exists ((o Int)) (and (and (and (and ( type_ebae6141_0901_43b8_b05c_2e01c6228f25_Class17 ( obj_94e80035_e3e0_4404_9f1b_a533f66d7f4d o )  )  ( type_ebae6141_0901_43b8_b05c_2e01c6228f25_Class24 ( obj_94e80035_e3e0_4404_9f1b_a533f66d7f4d o )  ) ) ( type_ebae6141_0901_43b8_b05c_2e01c6228f25_Class26 ( obj_94e80035_e3e0_4404_9f1b_a533f66d7f4d o )  ) ) ( type_ebae6141_0901_43b8_b05c_2e01c6228f25_Class32 ( obj_94e80035_e3e0_4404_9f1b_a533f66d7f4d o )  ) ) ( type_ebae6141_0901_43b8_b05c_2e01c6228f25_Class2 ( obj_94e80035_e3e0_4404_9f1b_a533f66d7f4d o )  ) )):named c9))
(assert (! (exists ((o Int)) ( type_ebae6141_0901_43b8_b05c_2e01c6228f25_Class18 ( obj_94e80035_e3e0_4404_9f1b_a533f66d7f4d o )  ) ):named c10))
(assert (! (exists ((o Int)) ( type_ebae6141_0901_43b8_b05c_2e01c6228f25_Class19 ( obj_94e80035_e3e0_4404_9f1b_a533f66d7f4d o )  ) ):named c11))
(assert (! (exists ((o Int)) ( type_ebae6141_0901_43b8_b05c_2e01c6228f25_Class2 ( obj_94e80035_e3e0_4404_9f1b_a533f66d7f4d o )  ) ):named c12))
(assert (! (exists ((o Int)) (and (and ( type_ebae6141_0901_43b8_b05c_2e01c6228f25_Class20 ( obj_94e80035_e3e0_4404_9f1b_a533f66d7f4d o )  )  ( type_ebae6141_0901_43b8_b05c_2e01c6228f25_Class21 ( obj_94e80035_e3e0_4404_9f1b_a533f66d7f4d o )  ) ) ( type_ebae6141_0901_43b8_b05c_2e01c6228f25_Class2 ( obj_94e80035_e3e0_4404_9f1b_a533f66d7f4d o )  ) )):named c13))
(assert (! (exists ((o Int)) (and ( type_ebae6141_0901_43b8_b05c_2e01c6228f25_Class21 ( obj_94e80035_e3e0_4404_9f1b_a533f66d7f4d o )  )  ( type_ebae6141_0901_43b8_b05c_2e01c6228f25_Class2 ( obj_94e80035_e3e0_4404_9f1b_a533f66d7f4d o )  ) )):named c14))
(assert (! (exists ((o Int)) (and (and ( type_ebae6141_0901_43b8_b05c_2e01c6228f25_Class22 ( obj_94e80035_e3e0_4404_9f1b_a533f66d7f4d o )  )  ( type_ebae6141_0901_43b8_b05c_2e01c6228f25_Class35 ( obj_94e80035_e3e0_4404_9f1b_a533f66d7f4d o )  ) ) ( type_ebae6141_0901_43b8_b05c_2e01c6228f25_Class2 ( obj_94e80035_e3e0_4404_9f1b_a533f66d7f4d o )  ) )):named c15))
(assert (! (exists ((o Int)) (and (and (and (and (and (and ( type_ebae6141_0901_43b8_b05c_2e01c6228f25_Class23 ( obj_94e80035_e3e0_4404_9f1b_a533f66d7f4d o )  )  ( type_ebae6141_0901_43b8_b05c_2e01c6228f25_Class12 ( obj_94e80035_e3e0_4404_9f1b_a533f66d7f4d o )  ) ) ( type_ebae6141_0901_43b8_b05c_2e01c6228f25_Class22 ( obj_94e80035_e3e0_4404_9f1b_a533f66d7f4d o )  ) ) ( type_ebae6141_0901_43b8_b05c_2e01c6228f25_Class25 ( obj_94e80035_e3e0_4404_9f1b_a533f66d7f4d o )  ) ) ( type_ebae6141_0901_43b8_b05c_2e01c6228f25_Class35 ( obj_94e80035_e3e0_4404_9f1b_a533f66d7f4d o )  ) ) ( type_ebae6141_0901_43b8_b05c_2e01c6228f25_Class0 ( obj_94e80035_e3e0_4404_9f1b_a533f66d7f4d o )  ) ) ( type_ebae6141_0901_43b8_b05c_2e01c6228f25_Class2 ( obj_94e80035_e3e0_4404_9f1b_a533f66d7f4d o )  ) )):named c16))
(assert (! (exists ((o Int)) (and (and (and ( type_ebae6141_0901_43b8_b05c_2e01c6228f25_Class24 ( obj_94e80035_e3e0_4404_9f1b_a533f66d7f4d o )  )  ( type_ebae6141_0901_43b8_b05c_2e01c6228f25_Class26 ( obj_94e80035_e3e0_4404_9f1b_a533f66d7f4d o )  ) ) ( type_ebae6141_0901_43b8_b05c_2e01c6228f25_Class32 ( obj_94e80035_e3e0_4404_9f1b_a533f66d7f4d o )  ) ) ( type_ebae6141_0901_43b8_b05c_2e01c6228f25_Class2 ( obj_94e80035_e3e0_4404_9f1b_a533f66d7f4d o )  ) )):named c17))
(assert (! (exists ((o Int)) (and (and (and (and (and ( type_ebae6141_0901_43b8_b05c_2e01c6228f25_Class25 ( obj_94e80035_e3e0_4404_9f1b_a533f66d7f4d o )  )  ( type_ebae6141_0901_43b8_b05c_2e01c6228f25_Class12 ( obj_94e80035_e3e0_4404_9f1b_a533f66d7f4d o )  ) ) ( type_ebae6141_0901_43b8_b05c_2e01c6228f25_Class22 ( obj_94e80035_e3e0_4404_9f1b_a533f66d7f4d o )  ) ) ( type_ebae6141_0901_43b8_b05c_2e01c6228f25_Class35 ( obj_94e80035_e3e0_4404_9f1b_a533f66d7f4d o )  ) ) ( type_ebae6141_0901_43b8_b05c_2e01c6228f25_Class0 ( obj_94e80035_e3e0_4404_9f1b_a533f66d7f4d o )  ) ) ( type_ebae6141_0901_43b8_b05c_2e01c6228f25_Class2 ( obj_94e80035_e3e0_4404_9f1b_a533f66d7f4d o )  ) )):named c18))
(assert (! (exists ((o Int)) (and (and ( type_ebae6141_0901_43b8_b05c_2e01c6228f25_Class26 ( obj_94e80035_e3e0_4404_9f1b_a533f66d7f4d o )  )  ( type_ebae6141_0901_43b8_b05c_2e01c6228f25_Class32 ( obj_94e80035_e3e0_4404_9f1b_a533f66d7f4d o )  ) ) ( type_ebae6141_0901_43b8_b05c_2e01c6228f25_Class2 ( obj_94e80035_e3e0_4404_9f1b_a533f66d7f4d o )  ) )):named c19))
(assert (! (exists ((o Int)) (and ( type_ebae6141_0901_43b8_b05c_2e01c6228f25_Class27 ( obj_94e80035_e3e0_4404_9f1b_a533f66d7f4d o )  )  ( type_ebae6141_0901_43b8_b05c_2e01c6228f25_Class2 ( obj_94e80035_e3e0_4404_9f1b_a533f66d7f4d o )  ) )):named c20))
(assert (! (exists ((o Int)) ( type_ebae6141_0901_43b8_b05c_2e01c6228f25_Class28 ( obj_94e80035_e3e0_4404_9f1b_a533f66d7f4d o )  ) ):named c21))
(assert (! (exists ((o Int)) ( type_ebae6141_0901_43b8_b05c_2e01c6228f25_Class29 ( obj_94e80035_e3e0_4404_9f1b_a533f66d7f4d o )  ) ):named c22))
(assert (! (exists ((o Int)) ( type_ebae6141_0901_43b8_b05c_2e01c6228f25_Class3 ( obj_94e80035_e3e0_4404_9f1b_a533f66d7f4d o )  ) ):named c23))
(assert (! (exists ((o Int)) (and ( type_ebae6141_0901_43b8_b05c_2e01c6228f25_Class30 ( obj_94e80035_e3e0_4404_9f1b_a533f66d7f4d o )  )  ( type_ebae6141_0901_43b8_b05c_2e01c6228f25_Class2 ( obj_94e80035_e3e0_4404_9f1b_a533f66d7f4d o )  ) )):named c24))
(assert (! (exists ((o Int)) (and (and (and (and ( type_ebae6141_0901_43b8_b05c_2e01c6228f25_Class31 ( obj_94e80035_e3e0_4404_9f1b_a533f66d7f4d o )  )  ( type_ebae6141_0901_43b8_b05c_2e01c6228f25_Class16 ( obj_94e80035_e3e0_4404_9f1b_a533f66d7f4d o )  ) ) ( type_ebae6141_0901_43b8_b05c_2e01c6228f25_Class15 ( obj_94e80035_e3e0_4404_9f1b_a533f66d7f4d o )  ) ) ( type_ebae6141_0901_43b8_b05c_2e01c6228f25_Class41 ( obj_94e80035_e3e0_4404_9f1b_a533f66d7f4d o )  ) ) ( type_ebae6141_0901_43b8_b05c_2e01c6228f25_Class2 ( obj_94e80035_e3e0_4404_9f1b_a533f66d7f4d o )  ) )):named c25))
(assert (! (exists ((o Int)) (and ( type_ebae6141_0901_43b8_b05c_2e01c6228f25_Class32 ( obj_94e80035_e3e0_4404_9f1b_a533f66d7f4d o )  )  ( type_ebae6141_0901_43b8_b05c_2e01c6228f25_Class2 ( obj_94e80035_e3e0_4404_9f1b_a533f66d7f4d o )  ) )):named c26))
(assert (! (exists ((o Int)) (and (and (and (and (and ( type_ebae6141_0901_43b8_b05c_2e01c6228f25_Class33 ( obj_94e80035_e3e0_4404_9f1b_a533f66d7f4d o )  )  ( type_ebae6141_0901_43b8_b05c_2e01c6228f25_Class13 ( obj_94e80035_e3e0_4404_9f1b_a533f66d7f4d o )  ) ) ( type_ebae6141_0901_43b8_b05c_2e01c6228f25_Class16 ( obj_94e80035_e3e0_4404_9f1b_a533f66d7f4d o )  ) ) ( type_ebae6141_0901_43b8_b05c_2e01c6228f25_Class15 ( obj_94e80035_e3e0_4404_9f1b_a533f66d7f4d o )  ) ) ( type_ebae6141_0901_43b8_b05c_2e01c6228f25_Class41 ( obj_94e80035_e3e0_4404_9f1b_a533f66d7f4d o )  ) ) ( type_ebae6141_0901_43b8_b05c_2e01c6228f25_Class2 ( obj_94e80035_e3e0_4404_9f1b_a533f66d7f4d o )  ) )):named c27))
(assert (! (exists ((o Int)) ( type_ebae6141_0901_43b8_b05c_2e01c6228f25_Class34 ( obj_94e80035_e3e0_4404_9f1b_a533f66d7f4d o )  ) ):named c28))
(assert (! (exists ((o Int)) (and ( type_ebae6141_0901_43b8_b05c_2e01c6228f25_Class35 ( obj_94e80035_e3e0_4404_9f1b_a533f66d7f4d o )  )  ( type_ebae6141_0901_43b8_b05c_2e01c6228f25_Class2 ( obj_94e80035_e3e0_4404_9f1b_a533f66d7f4d o )  ) )):named c29))
(assert (! (exists ((o Int)) ( type_ebae6141_0901_43b8_b05c_2e01c6228f25_Class36 ( obj_94e80035_e3e0_4404_9f1b_a533f66d7f4d o )  ) ):named c30))
(assert (! (exists ((o Int)) ( type_ebae6141_0901_43b8_b05c_2e01c6228f25_Class37 ( obj_94e80035_e3e0_4404_9f1b_a533f66d7f4d o )  ) ):named c31))
(assert (! (exists ((o Int)) (and ( type_ebae6141_0901_43b8_b05c_2e01c6228f25_Class38 ( obj_94e80035_e3e0_4404_9f1b_a533f66d7f4d o )  )  ( type_ebae6141_0901_43b8_b05c_2e01c6228f25_Class2 ( obj_94e80035_e3e0_4404_9f1b_a533f66d7f4d o )  ) )):named c32))
(assert (! (exists ((o Int)) ( type_ebae6141_0901_43b8_b05c_2e01c6228f25_Class39 ( obj_94e80035_e3e0_4404_9f1b_a533f66d7f4d o )  ) ):named c33))
(assert (! (exists ((o Int)) (and (and (and (and (and (and ( type_ebae6141_0901_43b8_b05c_2e01c6228f25_Class4 ( obj_94e80035_e3e0_4404_9f1b_a533f66d7f4d o )  )  ( type_ebae6141_0901_43b8_b05c_2e01c6228f25_Class33 ( obj_94e80035_e3e0_4404_9f1b_a533f66d7f4d o )  ) ) ( type_ebae6141_0901_43b8_b05c_2e01c6228f25_Class13 ( obj_94e80035_e3e0_4404_9f1b_a533f66d7f4d o )  ) ) ( type_ebae6141_0901_43b8_b05c_2e01c6228f25_Class16 ( obj_94e80035_e3e0_4404_9f1b_a533f66d7f4d o )  ) ) ( type_ebae6141_0901_43b8_b05c_2e01c6228f25_Class15 ( obj_94e80035_e3e0_4404_9f1b_a533f66d7f4d o )  ) ) ( type_ebae6141_0901_43b8_b05c_2e01c6228f25_Class41 ( obj_94e80035_e3e0_4404_9f1b_a533f66d7f4d o )  ) ) ( type_ebae6141_0901_43b8_b05c_2e01c6228f25_Class2 ( obj_94e80035_e3e0_4404_9f1b_a533f66d7f4d o )  ) )):named c34))
(assert (! (exists ((o Int)) (and (and (and ( type_ebae6141_0901_43b8_b05c_2e01c6228f25_Class40 ( obj_94e80035_e3e0_4404_9f1b_a533f66d7f4d o )  )  ( type_ebae6141_0901_43b8_b05c_2e01c6228f25_Class21 ( obj_94e80035_e3e0_4404_9f1b_a533f66d7f4d o )  ) ) ( type_ebae6141_0901_43b8_b05c_2e01c6228f25_Class2 ( obj_94e80035_e3e0_4404_9f1b_a533f66d7f4d o )  ) ) ( type_ebae6141_0901_43b8_b05c_2e01c6228f25_Class20 ( obj_94e80035_e3e0_4404_9f1b_a533f66d7f4d o )  ) )):named c35))
(assert (! (exists ((o Int)) (and (and (and ( type_ebae6141_0901_43b8_b05c_2e01c6228f25_Class41 ( obj_94e80035_e3e0_4404_9f1b_a533f66d7f4d o )  )  ( type_ebae6141_0901_43b8_b05c_2e01c6228f25_Class16 ( obj_94e80035_e3e0_4404_9f1b_a533f66d7f4d o )  ) ) ( type_ebae6141_0901_43b8_b05c_2e01c6228f25_Class15 ( obj_94e80035_e3e0_4404_9f1b_a533f66d7f4d o )  ) ) ( type_ebae6141_0901_43b8_b05c_2e01c6228f25_Class2 ( obj_94e80035_e3e0_4404_9f1b_a533f66d7f4d o )  ) )):named c36))
(assert (! (exists ((o Int)) (and (and (and ( type_ebae6141_0901_43b8_b05c_2e01c6228f25_Class42 ( obj_94e80035_e3e0_4404_9f1b_a533f66d7f4d o )  )  ( type_ebae6141_0901_43b8_b05c_2e01c6228f25_Class22 ( obj_94e80035_e3e0_4404_9f1b_a533f66d7f4d o )  ) ) ( type_ebae6141_0901_43b8_b05c_2e01c6228f25_Class35 ( obj_94e80035_e3e0_4404_9f1b_a533f66d7f4d o )  ) ) ( type_ebae6141_0901_43b8_b05c_2e01c6228f25_Class2 ( obj_94e80035_e3e0_4404_9f1b_a533f66d7f4d o )  ) )):named c37))
(assert (! (exists ((o Int)) ( type_ebae6141_0901_43b8_b05c_2e01c6228f25_Class43 ( obj_94e80035_e3e0_4404_9f1b_a533f66d7f4d o )  ) ):named c38))
(assert (! (exists ((o Int)) (and (and (and (and (and (and ( type_ebae6141_0901_43b8_b05c_2e01c6228f25_Class44 ( obj_94e80035_e3e0_4404_9f1b_a533f66d7f4d o )  )  ( type_ebae6141_0901_43b8_b05c_2e01c6228f25_Class33 ( obj_94e80035_e3e0_4404_9f1b_a533f66d7f4d o )  ) ) ( type_ebae6141_0901_43b8_b05c_2e01c6228f25_Class13 ( obj_94e80035_e3e0_4404_9f1b_a533f66d7f4d o )  ) ) ( type_ebae6141_0901_43b8_b05c_2e01c6228f25_Class16 ( obj_94e80035_e3e0_4404_9f1b_a533f66d7f4d o )  ) ) ( type_ebae6141_0901_43b8_b05c_2e01c6228f25_Class15 ( obj_94e80035_e3e0_4404_9f1b_a533f66d7f4d o )  ) ) ( type_ebae6141_0901_43b8_b05c_2e01c6228f25_Class41 ( obj_94e80035_e3e0_4404_9f1b_a533f66d7f4d o )  ) ) ( type_ebae6141_0901_43b8_b05c_2e01c6228f25_Class2 ( obj_94e80035_e3e0_4404_9f1b_a533f66d7f4d o )  ) )):named c39))
(assert (! (exists ((o Int)) ( type_ebae6141_0901_43b8_b05c_2e01c6228f25_Class45 ( obj_94e80035_e3e0_4404_9f1b_a533f66d7f4d o )  ) ):named c40))
(assert (! (exists ((o Int)) ( type_ebae6141_0901_43b8_b05c_2e01c6228f25_Class5 ( obj_94e80035_e3e0_4404_9f1b_a533f66d7f4d o )  ) ):named c41))
(assert (! (exists ((o Int)) (and (and (and (and ( type_ebae6141_0901_43b8_b05c_2e01c6228f25_Class6 ( obj_94e80035_e3e0_4404_9f1b_a533f66d7f4d o )  )  ( type_ebae6141_0901_43b8_b05c_2e01c6228f25_Class22 ( obj_94e80035_e3e0_4404_9f1b_a533f66d7f4d o )  ) ) ( type_ebae6141_0901_43b8_b05c_2e01c6228f25_Class35 ( obj_94e80035_e3e0_4404_9f1b_a533f66d7f4d o )  ) ) ( type_ebae6141_0901_43b8_b05c_2e01c6228f25_Class2 ( obj_94e80035_e3e0_4404_9f1b_a533f66d7f4d o )  ) ) ( type_ebae6141_0901_43b8_b05c_2e01c6228f25_Class42 ( obj_94e80035_e3e0_4404_9f1b_a533f66d7f4d o )  ) )):named c42))
(assert (! (exists ((o Int)) ( type_ebae6141_0901_43b8_b05c_2e01c6228f25_Class7 ( obj_94e80035_e3e0_4404_9f1b_a533f66d7f4d o )  ) ):named c43))
(assert (! (exists ((o Int)) (and (and (and (and (and ( type_ebae6141_0901_43b8_b05c_2e01c6228f25_Class8 ( obj_94e80035_e3e0_4404_9f1b_a533f66d7f4d o )  )  ( type_ebae6141_0901_43b8_b05c_2e01c6228f25_Class16 ( obj_94e80035_e3e0_4404_9f1b_a533f66d7f4d o )  ) ) ( type_ebae6141_0901_43b8_b05c_2e01c6228f25_Class15 ( obj_94e80035_e3e0_4404_9f1b_a533f66d7f4d o )  ) ) ( type_ebae6141_0901_43b8_b05c_2e01c6228f25_Class41 ( obj_94e80035_e3e0_4404_9f1b_a533f66d7f4d o )  ) ) ( type_ebae6141_0901_43b8_b05c_2e01c6228f25_Class10 ( obj_94e80035_e3e0_4404_9f1b_a533f66d7f4d o )  ) ) ( type_ebae6141_0901_43b8_b05c_2e01c6228f25_Class2 ( obj_94e80035_e3e0_4404_9f1b_a533f66d7f4d o )  ) )):named c44))
(assert (! (exists ((o Int)) (and (and (and (and (and (and (and ( type_ebae6141_0901_43b8_b05c_2e01c6228f25_Class9 ( obj_94e80035_e3e0_4404_9f1b_a533f66d7f4d o )  )  ( type_ebae6141_0901_43b8_b05c_2e01c6228f25_Class22 ( obj_94e80035_e3e0_4404_9f1b_a533f66d7f4d o )  ) ) ( type_ebae6141_0901_43b8_b05c_2e01c6228f25_Class35 ( obj_94e80035_e3e0_4404_9f1b_a533f66d7f4d o )  ) ) ( type_ebae6141_0901_43b8_b05c_2e01c6228f25_Class16 ( obj_94e80035_e3e0_4404_9f1b_a533f66d7f4d o )  ) ) ( type_ebae6141_0901_43b8_b05c_2e01c6228f25_Class15 ( obj_94e80035_e3e0_4404_9f1b_a533f66d7f4d o )  ) ) ( type_ebae6141_0901_43b8_b05c_2e01c6228f25_Class0 ( obj_94e80035_e3e0_4404_9f1b_a533f66d7f4d o )  ) ) ( type_ebae6141_0901_43b8_b05c_2e01c6228f25_Class41 ( obj_94e80035_e3e0_4404_9f1b_a533f66d7f4d o )  ) ) ( type_ebae6141_0901_43b8_b05c_2e01c6228f25_Class2 ( obj_94e80035_e3e0_4404_9f1b_a533f66d7f4d o )  ) )):named c45))

 ;end of formula 